% demand
num_movements = 35;
loading_factor = [1250, 1550, 1500, 1050, 1750, 1900, 1100, 900, 1700, 1850, 850, 1350, 1750, 1650, 1250, 1400, 950, 1950, 1200, 1250, 1050, 2000, 800, 1900, 900, 1950, 1800, 1050, 1750, 1800, 1600, 900, 1550, 1600, 1750];
pickup_time = [0, 0, 0, 0, 0, 0, 0, 0, 2, 3, 3, 3, 3, 3, 3, 4, 4, 5, 6, 7, 7, 7, 8, 8, 8, 8, 8, 9, 10, 10, 11, 11, 11, 11, 12];
delivery_time = [2, 2, 1, 2, 2, 2, 2, 2, 4, 4, 7, 4, 8, 7, 8, 8, 7, 7, 7, 8, 8, 8, 10, 10, 11, 10, 11, 13, 13, 12, 13, 13, 13, 13, 13];

% transporter definition
total_capacity = 11000;
num_decks = 4;
capacity = [3000, 3000, 1000, 4000];

% ways out of decks
num_ways_out = 2;
paths_out = array3d(decks, ways_out, decks, [
% ways out of deck d1
2, 4, 0, 0, 3, 4, 0, 0, 

% ways out of deck d2
4, 0, 0, 0, 0, 0, 0, 0,	

% ways out of deck d3
4, 0, 0, 0, 0, 0, 0, 0,	

% ways out of deck d4
0, 0, 0, 0,	0, 0, 0, 0,	

]);

